NAME : MM34_depots
COMMENT : Instance 34 in MD algorithm. Coordinates of depots and vhcl speeds given.
TYPE : TSP
DIMENSION : 20
EDGE_WEIGHT_TYPE : ATT
NODE_COORD_SECTION
501 93.1616 60.0345 1
502 78.3102 8.4997 1
503 68.5687 92.2358 1
504 46.6219 5.3598 1
505 26.0318 52.7025 1
506 56.9268 11.8853 1
507 24.8771 38.0143 1
508 31.9302 81.2833 1
509 91.0802 24.4096 1
510 88.522 88.4423 1
511 79.4589 71.2647 1
512 92.581 37.8148 1
513 17.884 24.892 1
514 51.7541 25.2854 1
515 62.7005 76.7244 1
516 91.3182 4.9862 1
517 66.3968 68.5289 1
518 38.9193 62.0278 1
519 74.0008 74.6685 1
520 81.7635 97.7256 1
EOF
